set N := AA AB AC AD AE AF AG AH AI AJ AK AL AM AN AO AP AQ AR AS AT;

set T := AA AB AC AD AE AF AG AH AI AJ;

table	K={K}	u(K)	o(K)	o_(K):
	K	u	o	o_	:=
	1	23.87	AK	AL
	2	30.48	AM	AN
	3	33.19	AO	AP
	4	13.43	AQ	AR
	5	40.00	AS	AT
;

param c default 0 :=
AA	AB	1	198.52
AA	AB	2	141.15
AA	AB	3	174.68
AA	AB	4	187.57
AA	AB	5	220.83
AA	AC	1	202.45
AA	AC	2	143.95
AA	AC	3	178.14
AA	AC	4	191.28
AA	AC	5	225.21
AA	AD	1	170.77
AA	AD	2	121.42
AA	AD	3	150.26
AA	AD	4	161.35
AA	AD	5	189.97
AA	AE	1	748.35
AA	AE	2	532.08
AA	AE	3	658.47
AA	AE	4	707.05
AA	AE	5	832.45
AA	AF	1	207.26
AA	AF	2	147.36
AA	AF	3	182.37
AA	AF	4	195.82
AA	AF	5	230.56
AA	AG	1	106.91
AA	AG	2	76.01
AA	AG	3	94.07
AA	AG	4	101.01
AA	AG	5	118.92
AA	AH	1	79.41
AA	AH	2	56.46
AA	AH	3	69.87
AA	AH	4	75.03
AA	AH	5	88.33
AA	AI	1	138.96
AA	AI	2	98.80
AA	AI	3	122.27
AA	AI	4	131.30
AA	AI	5	154.58
AA	AJ	1	829.05
AA	AJ	2	589.46
AA	AJ	3	729.47
AA	AJ	4	783.29
AA	AJ	5	922.22
AA	AK	1	424.53
AA	AK	2	301.84
AA	AK	3	373.54
AA	AK	4	401.10
AA	AK	5	472.24
AA	AL	1	414.08
AA	AL	2	294.42
AA	AL	3	364.35
AA	AL	4	391.23
AA	AL	5	460.62
AA	AM	1	340.23
AA	AM	2	241.91
AA	AM	3	299.37
AA	AM	4	321.46
AA	AM	5	378.47
AA	AN	1	395.48
AA	AN	2	281.19
AA	AN	3	347.98
AA	AN	4	373.65
AA	AN	5	439.93
AA	AO	1	197.52
AA	AO	2	140.44
AA	AO	3	173.79
AA	AO	4	186.62
AA	AO	5	219.72
AA	AP	1	245.66
AA	AP	2	174.67
AA	AP	3	216.16
AA	AP	4	232.11
AA	AP	5	273.28
AA	AQ	1	284.93
AA	AQ	2	202.59
AA	AQ	3	250.71
AA	AQ	4	269.20
AA	AQ	5	316.95
AA	AR	1	540.82
AA	AR	2	384.53
AA	AR	3	475.87
AA	AR	4	510.98
AA	AR	5	601.61
AA	AS	1	255.11
AA	AS	2	181.39
AA	AS	3	224.47
AA	AS	4	241.03
AA	AS	5	283.79
AA	AT	1	348.58
AA	AT	2	247.84
AA	AT	3	306.71
AA	AT	4	329.34
AA	AT	5	387.76
AB	AA	1	198.52
AB	AA	2	141.15
AB	AA	3	174.68
AB	AA	4	187.57
AB	AA	5	220.83
AB	AC	1	39.70
AB	AC	2	28.23
AB	AC	3	34.94
AB	AC	4	37.51
AB	AC	5	44.17
AB	AD	1	170.77
AB	AD	2	121.42
AB	AD	3	150.26
AB	AD	4	161.35
AB	AD	5	189.97
AB	AE	1	935.58
AB	AE	2	665.20
AB	AE	3	823.21
AB	AE	4	883.95
AB	AE	5	1040.73
AB	AF	1	59.56
AB	AF	2	42.34
AB	AF	3	52.40
AB	AF	4	56.27
AB	AF	5	66.25
AB	AG	1	106.91
AB	AG	2	76.01
AB	AG	3	94.07
AB	AG	4	101.01
AB	AG	5	118.92
AB	AH	1	213.81
AB	AH	2	152.02
AB	AH	3	188.13
AB	AH	4	202.01
AB	AH	5	237.84
AB	AI	1	242.32
AB	AI	2	172.30
AB	AI	3	213.22
AB	AI	4	228.95
AB	AI	5	269.56
AB	AJ	1	1020.79
AB	AJ	2	725.79
AB	AJ	3	898.19
AB	AJ	4	964.46
AB	AJ	5	1135.52
AB	AK	1	608.55
AB	AK	2	432.68
AB	AK	3	535.46
AB	AK	4	574.97
AB	AK	5	676.94
AB	AL	1	612.17
AB	AL	2	435.26
AB	AL	3	538.64
AB	AL	4	578.39
AB	AL	5	680.97
AB	AM	1	538.70
AB	AM	2	383.02
AB	AM	3	474.00
AB	AM	4	508.97
AB	AM	5	599.25
AB	AN	1	581.12
AB	AN	2	413.18
AB	AN	3	511.33
AB	AN	4	549.05
AB	AN	5	646.44
AB	AO	1	372.32
AB	AO	2	264.72
AB	AO	3	327.60
AB	AO	4	351.78
AB	AO	5	414.17
AB	AP	1	381.53
AB	AP	2	271.27
AB	AP	3	335.71
AB	AP	4	360.48
AB	AP	5	424.42
AB	AQ	1	464.53
AB	AQ	2	330.29
AB	AQ	3	408.74
AB	AQ	4	438.90
AB	AQ	5	516.74
AB	AR	1	730.40
AB	AR	2	519.32
AB	AR	3	642.67
AB	AR	4	690.09
AB	AR	5	812.49
AB	AS	1	445.77
AB	AS	2	316.95
AB	AS	3	392.23
AB	AS	4	421.17
AB	AS	5	495.87
AB	AT	1	546.38
AB	AT	2	388.48
AB	AT	3	480.75
AB	AT	4	516.22
AB	AT	5	607.78
AC	AA	1	202.45
AC	AA	2	143.95
AC	AA	3	178.14
AC	AA	4	191.28
AC	AA	5	225.21
AC	AB	1	39.70
AC	AB	2	28.23
AC	AB	3	34.94
AC	AB	4	37.51
AC	AB	5	44.17
AC	AD	1	140.38
AC	AD	2	99.81
AC	AD	3	123.52
AC	AD	4	132.63
AC	AD	5	156.15
AC	AE	1	924.56
AC	AE	2	657.37
AC	AE	3	813.52
AC	AE	4	873.54
AC	AE	5	1028.47
AC	AF	1	99.26
AC	AF	2	70.57
AC	AF	3	87.34
AC	AF	4	93.78
AC	AF	5	110.42
AC	AG	1	99.26
AC	AG	2	70.57
AC	AG	3	87.34
AC	AG	4	93.78
AC	AG	5	110.42
AC	AH	1	202.45
AC	AH	2	143.95
AC	AH	3	178.14
AC	AH	4	191.28
AC	AH	5	225.21
AC	AI	1	221.95
AC	AI	2	157.81
AC	AI	3	195.29
AC	AI	4	209.70
AC	AI	5	246.90
AC	AJ	1	1012.26
AC	AJ	2	719.73
AC	AJ	3	890.68
AC	AJ	4	956.40
AC	AJ	5	1126.03
AC	AK	1	597.33
AC	AK	2	424.71
AC	AK	3	525.59
AC	AK	4	564.37
AC	AK	5	664.47
AC	AL	1	615.61
AC	AL	2	437.70
AC	AL	3	541.67
AC	AL	4	581.64
AC	AL	5	684.80
AC	AM	1	540.89
AC	AM	2	384.58
AC	AM	3	475.93
AC	AM	4	511.05
AC	AM	5	601.69
AC	AN	1	570.81
AC	AN	2	405.85
AC	AN	3	502.26
AC	AN	4	539.31
AC	AN	5	634.97
AC	AO	1	360.76
AC	AO	2	256.50
AC	AO	3	317.43
AC	AO	4	340.85
AC	AO	5	401.31
AC	AP	1	360.45
AC	AP	2	256.28
AC	AP	3	317.16
AC	AP	4	340.56
AC	AP	5	400.96
AC	AQ	1	452.93
AC	AQ	2	322.03
AC	AQ	3	398.53
AC	AQ	4	427.93
AC	AQ	5	503.83
AC	AR	1	721.29
AC	AR	2	512.84
AC	AR	3	634.66
AC	AR	4	681.49
AC	AR	5	802.36
AC	AS	1	439.15
AC	AS	2	312.24
AC	AS	3	386.40
AC	AS	4	414.91
AC	AS	5	488.50
AC	AT	1	545.12
AC	AT	2	387.58
AC	AT	3	479.64
AC	AT	4	515.03
AC	AT	5	606.38
AD	AA	1	170.77
AD	AA	2	121.42
AD	AA	3	150.26
AD	AA	4	161.35
AD	AA	5	189.97
AD	AB	1	170.77
AD	AB	2	121.42
AD	AB	3	150.26
AD	AB	4	161.35
AD	AB	5	189.97
AD	AC	1	140.38
AD	AC	2	99.81
AD	AC	3	123.52
AD	AC	4	132.63
AD	AC	5	156.15
AD	AE	1	806.15
AD	AE	2	573.18
AD	AE	3	709.33
AD	AE	4	761.66
AD	AE	5	896.75
AD	AF	1	221.95
AD	AF	2	157.81
AD	AF	3	195.29
AD	AF	4	209.70
AD	AF	5	246.90
AD	AG	1	99.26
AD	AG	2	70.57
AD	AG	3	87.34
AD	AG	4	93.78
AD	AG	5	110.42
AD	AH	1	115.76
AD	AH	2	82.30
AD	AH	3	101.85
AD	AH	4	109.37
AD	AH	5	128.77
AD	AI	1	99.26
AD	AI	2	70.57
AD	AI	3	87.34
AD	AI	4	93.78
AD	AI	5	110.42
AD	AJ	1	898.84
AD	AJ	2	639.08
AD	AJ	3	790.88
AD	AJ	4	849.24
AD	AJ	5	999.86
AD	AK	1	481.54
AD	AK	2	342.38
AD	AK	3	423.70
AD	AK	4	454.97
AD	AK	5	535.66
AD	AL	1	540.23
AD	AL	2	384.11
AD	AL	3	475.34
AD	AL	4	510.41
AD	AL	5	600.94
AD	AM	1	463.91
AD	AM	2	329.84
AD	AM	3	408.19
AD	AM	4	438.31
AD	AM	5	516.05
AD	AN	1	457.64
AD	AN	2	325.39
AD	AN	3	402.68
AD	AN	4	432.39
AD	AN	5	509.08
AD	AO	1	251.19
AD	AO	2	178.60
AD	AO	3	221.02
AD	AO	4	237.33
AD	AO	5	279.42
AD	AP	1	228.34
AD	AP	2	162.35
AD	AP	3	200.91
AD	AP	4	215.74
AD	AP	5	254.00
AD	AQ	1	339.35
AD	AQ	2	241.28
AD	AQ	3	298.59
AD	AQ	4	320.63
AD	AQ	5	377.49
AD	AR	1	608.81
AD	AR	2	432.87
AD	AR	3	535.69
AD	AR	4	575.22
AD	AR	5	677.24
AD	AS	1	339.59
AD	AS	2	241.45
AD	AS	3	298.81
AD	AS	4	320.85
AD	AS	5	377.76
AD	AT	1	457.32
AD	AT	2	325.16
AD	AT	3	402.39
AD	AT	4	432.08
AD	AT	5	508.72
AE	AA	1	748.35
AE	AA	2	532.08
AE	AA	3	658.47
AE	AA	4	707.05
AE	AA	5	832.45
AE	AB	1	935.58
AE	AB	2	665.20
AE	AB	3	823.21
AE	AB	4	883.95
AE	AB	5	1040.73
AE	AC	1	924.56
AE	AC	2	657.37
AE	AC	3	813.52
AE	AC	4	873.54
AE	AC	5	1028.47
AE	AD	1	806.15
AE	AD	2	573.18
AE	AD	3	709.33
AE	AD	4	761.66
AE	AD	5	896.75
AE	AF	1	954.96
AE	AF	2	678.99
AE	AF	3	840.27
AE	AF	4	902.26
AE	AF	5	1062.29
AE	AG	1	829.05
AE	AG	2	589.46
AE	AG	3	729.47
AE	AG	4	783.29
AE	AG	5	922.22
AE	AH	1	722.62
AE	AH	2	513.79
AE	AH	3	635.83
AE	AH	4	682.75
AE	AH	5	803.84
AE	AI	1	708.58
AE	AI	2	503.81
AE	AI	3	623.48
AE	AI	4	669.48
AE	AI	5	788.22
AE	AJ	1	106.91
AE	AJ	2	76.01
AE	AJ	3	94.07
AE	AJ	4	101.01
AE	AJ	5	118.92
AE	AK	1	327.26
AE	AK	2	232.68
AE	AK	3	287.95
AE	AK	4	309.20
AE	AK	5	364.04
AE	AL	1	420.10
AE	AL	2	298.70
AE	AL	3	369.65
AE	AL	4	396.92
AE	AL	5	467.32
AE	AM	1	456.87
AE	AM	2	324.84
AE	AM	3	402.00
AE	AM	4	431.66
AE	AM	5	508.22
AE	AN	1	354.48
AE	AN	2	252.04
AE	AN	3	311.91
AE	AN	4	334.92
AE	AN	5	394.32
AE	AO	1	563.89
AE	AO	2	400.93
AE	AO	3	496.16
AE	AO	4	532.77
AE	AO	5	627.26
AE	AP	1	582.66
AE	AP	2	414.27
AE	AP	3	512.68
AE	AP	4	550.50
AE	AP	5	648.14
AE	AQ	1	471.65
AE	AQ	2	335.35
AE	AQ	3	415.00
AE	AQ	4	445.62
AE	AQ	5	524.66
AE	AR	1	208.33
AE	AR	2	148.12
AE	AR	3	183.31
AE	AR	4	196.83
AE	AR	5	231.74
AE	AS	1	493.24
AE	AS	2	350.70
AE	AS	3	434.00
AE	AS	4	466.02
AE	AS	5	548.67
AE	AT	1	423.35
AE	AT	2	301.00
AE	AT	3	372.50
AE	AT	4	399.99
AE	AT	5	470.93
AF	AA	1	207.26
AF	AA	2	147.36
AF	AA	3	182.37
AF	AA	4	195.82
AF	AA	5	230.56
AF	AB	1	59.56
AF	AB	2	42.34
AF	AB	3	52.40
AF	AB	4	56.27
AF	AB	5	66.25
AF	AC	1	99.26
AF	AC	2	70.57
AF	AC	3	87.34
AF	AC	4	93.78
AF	AC	5	110.42
AF	AD	1	221.95
AF	AD	2	157.81
AF	AD	3	195.29
AF	AD	4	209.70
AF	AD	5	246.90
AF	AE	1	954.96
AF	AE	2	678.99
AF	AE	3	840.27
AF	AE	4	902.26
AF	AE	5	1062.29
AF	AG	1	140.38
AF	AG	2	99.81
AF	AG	3	123.52
AF	AG	4	132.63
AF	AG	5	156.15
AF	AH	1	242.32
AF	AH	2	172.30
AF	AH	3	213.22
AF	AH	4	228.95
AF	AH	5	269.56
AF	AI	1	280.75
AF	AI	2	199.62
AF	AI	3	247.03
AF	AI	4	265.26
AF	AI	5	312.30
AF	AJ	1	1036.31
AF	AJ	2	736.82
AF	AJ	3	911.84
AF	AJ	4	979.12
AF	AJ	5	1152.78
AF	AK	1	629.71
AF	AK	2	447.73
AF	AK	3	554.08
AF	AK	4	594.96
AF	AK	5	700.48
AF	AL	1	611.82
AF	AL	2	435.01
AF	AL	3	538.34
AF	AL	4	578.05
AF	AL	5	680.58
AF	AM	1	540.88
AF	AM	2	384.57
AF	AM	3	475.92
AF	AM	4	511.04
AF	AM	5	601.67
AF	AN	1	601.19
AF	AN	2	427.45
AF	AN	3	528.98
AF	AN	4	568.01
AF	AN	5	668.76
AF	AO	1	396.55
AF	AO	2	281.95
AF	AO	3	348.92
AF	AO	4	374.66
AF	AO	5	441.11
AF	AP	1	418.27
AF	AP	2	297.39
AF	AP	3	368.03
AF	AP	4	395.19
AF	AP	5	465.28
AF	AQ	1	487.52
AF	AQ	2	346.63
AF	AQ	3	428.96
AF	AQ	4	460.61
AF	AQ	5	542.31
AF	AR	1	747.81
AF	AR	2	531.70
AF	AR	3	658.00
AF	AR	4	706.54
AF	AR	5	831.86
AF	AS	1	461.97
AF	AS	2	328.46
AF	AS	3	406.48
AF	AS	4	436.47
AF	AS	5	513.89
AF	AT	1	553.63
AF	AT	2	393.63
AF	AT	3	487.13
AF	AT	4	523.08
AF	AT	5	615.85
AG	AA	1	106.91
AG	AA	2	76.01
AG	AA	3	94.07
AG	AA	4	101.01
AG	AA	5	118.92
AG	AB	1	106.91
AG	AB	2	76.01
AG	AB	3	94.07
AG	AB	4	101.01
AG	AB	5	118.92
AG	AC	1	99.26
AG	AC	2	70.57
AG	AC	3	87.34
AG	AC	4	93.78
AG	AC	5	110.42
AG	AD	1	99.26
AG	AD	2	70.57
AG	AD	3	87.34
AG	AD	4	93.78
AG	AD	5	110.42
AG	AE	1	829.05
AG	AE	2	589.46
AG	AE	3	729.47
AG	AE	4	783.29
AG	AE	5	922.22
AG	AF	1	140.38
AG	AF	2	99.81
AG	AF	3	123.52
AG	AF	4	132.63
AG	AF	5	156.15
AG	AH	1	106.91
AG	AH	2	76.01
AG	AH	3	94.07
AG	AH	4	101.01
AG	AH	5	118.92
AG	AI	1	140.38
AG	AI	2	99.81
AG	AI	3	123.52
AG	AI	4	132.63
AG	AI	5	156.15
AG	AJ	1	915.13
AG	AJ	2	650.67
AG	AJ	3	805.22
AG	AJ	4	864.63
AG	AJ	5	1017.99
AG	AK	1	501.90
AG	AK	2	356.85
AG	AK	3	441.62
AG	AK	4	474.20
AG	AK	5	558.31
AG	AL	1	517.19
AG	AL	2	367.72
AG	AL	3	455.07
AG	AL	4	488.65
AG	AL	5	575.31
AG	AM	1	442.15
AG	AM	2	314.37
AG	AM	3	389.04
AG	AM	4	417.75
AG	AM	5	491.84
AG	AN	1	474.69
AG	AN	2	337.51
AG	AN	3	417.67
AG	AN	4	448.49
AG	AN	5	528.04
AG	AO	1	265.50
AG	AO	2	188.77
AG	AO	3	233.61
AG	AO	4	250.85
AG	AO	5	295.34
AG	AP	1	278.32
AG	AP	2	197.89
AG	AP	3	244.89
AG	AP	4	262.96
AG	AP	5	309.60
AG	AQ	1	357.75
AG	AQ	2	254.36
AG	AQ	3	314.78
AG	AQ	4	338.01
AG	AQ	5	397.96
AG	AR	1	624.43
AG	AR	2	443.97
AG	AR	3	549.43
AG	AR	4	589.97
AG	AR	5	694.61
AG	AS	1	340.86
AG	AS	2	242.35
AG	AS	3	299.92
AG	AS	4	322.05
AG	AS	5	379.16
AG	AT	1	445.86
AG	AT	2	317.01
AG	AT	3	392.31
AG	AT	4	421.25
AG	AT	5	495.97
AH	AA	1	79.41
AH	AA	2	56.46
AH	AA	3	69.87
AH	AA	4	75.03
AH	AA	5	88.33
AH	AB	1	213.81
AH	AB	2	152.02
AH	AB	3	188.13
AH	AB	4	202.01
AH	AB	5	237.84
AH	AC	1	202.45
AH	AC	2	143.95
AH	AC	3	178.14
AH	AC	4	191.28
AH	AC	5	225.21
AH	AD	1	115.76
AH	AD	2	82.30
AH	AD	3	101.85
AH	AD	4	109.37
AH	AD	5	128.77
AH	AE	1	722.62
AH	AE	2	513.79
AH	AE	3	635.83
AH	AE	4	682.75
AH	AE	5	803.84
AH	AF	1	242.32
AH	AF	2	172.30
AH	AF	3	213.22
AH	AF	4	228.95
AH	AF	5	269.56
AH	AG	1	106.91
AH	AG	2	76.01
AH	AG	3	94.07
AH	AG	4	101.01
AH	AG	5	118.92
AH	AI	1	59.56
AH	AI	2	42.34
AH	AI	3	52.40
AH	AI	4	56.27
AH	AI	5	66.25
AH	AJ	1	809.81
AH	AJ	2	575.78
AH	AJ	3	712.55
AH	AJ	4	765.12
AH	AJ	5	900.82
AH	AK	1	395.38
AH	AK	2	281.12
AH	AK	3	347.90
AH	AK	4	373.56
AH	AK	5	439.82
AH	AL	1	427.87
AH	AL	2	304.22
AH	AL	3	376.48
AH	AL	4	404.26
AH	AL	5	475.96
AH	AM	1	351.64
AH	AM	2	250.02
AH	AM	3	309.41
AH	AM	4	332.23
AH	AM	5	391.16
AH	AN	1	368.52
AH	AN	2	262.02
AH	AN	3	324.26
AH	AN	4	348.18
AH	AN	5	409.94
AH	AO	1	158.79
AH	AO	2	112.90
AH	AO	3	139.72
AH	AO	4	150.03
AH	AO	5	176.64
AH	AP	1	179.48
AH	AP	2	127.61
AH	AP	3	157.92
AH	AP	4	169.57
AH	AP	5	199.65
AH	AQ	1	251.08
AH	AQ	2	178.52
AH	AQ	3	220.92
AH	AQ	4	237.22
AH	AQ	5	279.30
AH	AR	1	518.85
AH	AR	2	368.90
AH	AR	3	456.53
AH	AR	4	490.21
AH	AR	5	577.16
AH	AS	1	237.73
AH	AS	2	169.02
AH	AS	3	209.17
AH	AS	4	224.61
AH	AS	5	264.44
AH	AT	1	349.15
AH	AT	2	248.25
AH	AT	3	307.22
AH	AT	4	329.88
AH	AT	5	388.39
AI	AA	1	138.96
AI	AA	2	98.80
AI	AA	3	122.27
AI	AA	4	131.30
AI	AA	5	154.58
AI	AB	1	242.32
AI	AB	2	172.30
AI	AB	3	213.22
AI	AB	4	228.95
AI	AB	5	269.56
AI	AC	1	221.95
AI	AC	2	157.81
AI	AC	3	195.29
AI	AC	4	209.70
AI	AC	5	246.90
AI	AD	1	99.26
AI	AD	2	70.57
AI	AD	3	87.34
AI	AD	4	93.78
AI	AD	5	110.42
AI	AE	1	708.58
AI	AE	2	503.81
AI	AE	3	623.48
AI	AE	4	669.48
AI	AE	5	788.22
AI	AF	1	280.75
AI	AF	2	199.62
AI	AF	3	247.03
AI	AF	4	265.26
AI	AF	5	312.30
AI	AG	1	140.38
AI	AG	2	99.81
AI	AG	3	123.52
AI	AG	4	132.63
AI	AG	5	156.15
AI	AH	1	59.56
AI	AH	2	42.34
AI	AH	3	52.40
AI	AH	4	56.27
AI	AH	5	66.25
AI	AJ	1	800.26
AI	AJ	2	568.99
AI	AJ	3	704.15
AI	AJ	4	756.10
AI	AJ	5	890.20
AI	AK	1	382.99
AI	AK	2	272.31
AI	AK	3	336.99
AI	AK	4	361.85
AI	AK	5	426.03
AI	AL	1	447.28
AI	AL	2	318.02
AI	AL	3	393.56
AI	AL	4	422.59
AI	AL	5	497.55
AI	AM	1	371.27
AI	AM	2	263.98
AI	AM	3	326.68
AI	AM	4	350.79
AI	AM	5	413.00
AI	AN	1	358.66
AI	AN	2	255.01
AI	AN	3	315.58
AI	AN	4	338.87
AI	AN	5	398.97
AI	AO	1	152.13
AI	AO	2	108.16
AI	AO	3	133.86
AI	AO	4	143.73
AI	AO	5	169.23
AI	AP	1	139.22
AI	AP	2	98.99
AI	AP	3	122.50
AI	AP	4	131.54
AI	AP	5	154.87
AI	AQ	1	240.23
AI	AQ	2	170.81
AI	AQ	3	211.38
AI	AQ	4	226.97
AI	AQ	5	267.23
AI	AR	1	509.91
AI	AR	2	362.55
AI	AR	3	448.67
AI	AR	4	481.77
AI	AR	5	567.22
AI	AS	1	241.58
AI	AS	2	171.77
AI	AS	3	212.57
AI	AS	4	228.25
AI	AS	5	268.74
AI	AT	1	361.22
AI	AT	2	256.83
AI	AT	3	317.84
AI	AT	4	341.29
AI	AT	5	401.82
AJ	AA	1	829.05
AJ	AA	2	589.46
AJ	AA	3	729.47
AJ	AA	4	783.29
AJ	AA	5	922.22
AJ	AB	1	1020.79
AJ	AB	2	725.79
AJ	AB	3	898.19
AJ	AB	4	964.46
AJ	AB	5	1135.52
AJ	AC	1	1012.26
AJ	AC	2	719.73
AJ	AC	3	890.68
AJ	AC	4	956.40
AJ	AC	5	1126.03
AJ	AD	1	898.84
AJ	AD	2	639.08
AJ	AD	3	790.88
AJ	AD	4	849.24
AJ	AD	5	999.86
AJ	AE	1	106.91
AJ	AE	2	76.01
AJ	AE	3	94.07
AJ	AE	4	101.01
AJ	AE	5	118.92
AJ	AF	1	1036.31
AJ	AF	2	736.82
AJ	AF	3	911.84
AJ	AF	4	979.12
AJ	AF	5	1152.78
AJ	AG	1	915.13
AJ	AG	2	650.67
AJ	AG	3	805.22
AJ	AG	4	864.63
AJ	AG	5	1017.99
AJ	AH	1	809.81
AJ	AH	2	575.78
AJ	AH	3	712.55
AJ	AH	4	765.12
AJ	AH	5	900.82
AJ	AI	1	800.26
AJ	AI	2	568.99
AJ	AI	3	704.15
AJ	AI	4	756.10
AJ	AI	5	890.20
AJ	AK	1	417.31
AJ	AK	2	296.71
AJ	AK	3	367.19
AJ	AK	4	394.28
AJ	AK	5	464.21
AJ	AL	1	468.18
AJ	AL	2	332.88
AJ	AL	3	411.95
AJ	AL	4	442.35
AJ	AL	5	520.80
AJ	AM	1	517.41
AJ	AM	2	367.89
AJ	AM	3	455.27
AJ	AM	4	488.86
AJ	AM	5	575.57
AJ	AN	1	442.11
AJ	AN	2	314.34
AJ	AN	3	389.01
AJ	AN	4	417.71
AJ	AN	5	491.79
AJ	AO	1	652.09
AJ	AO	2	463.64
AJ	AO	3	573.77
AJ	AO	4	616.10
AJ	AO	5	725.38
AJ	AP	1	679.05
AJ	AP	2	482.81
AJ	AP	3	597.49
AJ	AP	4	641.57
AJ	AP	5	755.36
AJ	AQ	1	560.69
AJ	AQ	2	398.66
AJ	AQ	3	493.35
AJ	AQ	4	529.75
AJ	AQ	5	623.71
AJ	AR	1	291.04
AJ	AR	2	206.93
AJ	AR	3	256.08
AJ	AR	4	274.98
AJ	AR	5	323.75
AJ	AS	1	575.24
AJ	AS	2	409.00
AJ	AS	3	506.16
AJ	AS	4	543.50
AJ	AS	5	639.90
AJ	AT	1	490.58
AJ	AT	2	348.80
AJ	AT	3	431.66
AJ	AT	4	463.51
AJ	AT	5	545.71
AK	AA	1	424.53
AK	AA	2	301.84
AK	AA	3	373.54
AK	AA	4	401.10
AK	AA	5	472.24
AK	AB	1	608.55
AK	AB	2	432.68
AK	AB	3	535.46
AK	AB	4	574.97
AK	AB	5	676.94
AK	AC	1	597.33
AK	AC	2	424.71
AK	AC	3	525.59
AK	AC	4	564.37
AK	AC	5	664.47
AK	AD	1	481.54
AK	AD	2	342.38
AK	AD	3	423.70
AK	AD	4	454.97
AK	AD	5	535.66
AK	AE	1	327.26
AK	AE	2	232.68
AK	AE	3	287.95
AK	AE	4	309.20
AK	AE	5	364.04
AK	AF	1	629.71
AK	AF	2	447.73
AK	AF	3	554.08
AK	AF	4	594.96
AK	AF	5	700.48
AK	AG	1	501.90
AK	AG	2	356.85
AK	AG	3	441.62
AK	AG	4	474.20
AK	AG	5	558.31
AK	AH	1	395.38
AK	AH	2	281.12
AK	AH	3	347.90
AK	AH	4	373.56
AK	AH	5	439.82
AK	AI	1	382.99
AK	AI	2	272.31
AK	AI	3	336.99
AK	AI	4	361.85
AK	AI	5	426.03
AK	AJ	1	417.31
AK	AJ	2	296.71
AK	AJ	3	367.19
AK	AJ	4	394.28
AK	AJ	5	464.21
AL	AA	1	414.08
AL	AA	2	294.42
AL	AA	3	364.35
AL	AA	4	391.23
AL	AA	5	460.62
AL	AB	1	612.17
AL	AB	2	435.26
AL	AB	3	538.64
AL	AB	4	578.39
AL	AB	5	680.97
AL	AC	1	615.61
AL	AC	2	437.70
AL	AC	3	541.67
AL	AC	4	581.64
AL	AC	5	684.80
AL	AD	1	540.23
AL	AD	2	384.11
AL	AD	3	475.34
AL	AD	4	510.41
AL	AD	5	600.94
AL	AE	1	420.10
AL	AE	2	298.70
AL	AE	3	369.65
AL	AE	4	396.92
AL	AE	5	467.32
AL	AF	1	611.82
AL	AF	2	435.01
AL	AF	3	538.34
AL	AF	4	578.05
AL	AF	5	680.58
AL	AG	1	517.19
AL	AG	2	367.72
AL	AG	3	455.07
AL	AG	4	488.65
AL	AG	5	575.31
AL	AH	1	427.87
AL	AH	2	304.22
AL	AH	3	376.48
AL	AH	4	404.26
AL	AH	5	475.96
AL	AI	1	447.28
AL	AI	2	318.02
AL	AI	3	393.56
AL	AI	4	422.59
AL	AI	5	497.55
AL	AJ	1	468.18
AL	AJ	2	332.88
AL	AJ	3	411.95
AL	AJ	4	442.35
AL	AJ	5	520.80
AM	AA	1	340.23
AM	AA	2	241.91
AM	AA	3	299.37
AM	AA	4	321.46
AM	AA	5	378.47
AM	AB	1	538.70
AM	AB	2	383.02
AM	AB	3	474.00
AM	AB	4	508.97
AM	AB	5	599.25
AM	AC	1	540.89
AM	AC	2	384.58
AM	AC	3	475.93
AM	AC	4	511.05
AM	AC	5	601.69
AM	AD	1	463.91
AM	AD	2	329.84
AM	AD	3	408.19
AM	AD	4	438.31
AM	AD	5	516.05
AM	AE	1	456.87
AM	AE	2	324.84
AM	AE	3	402.00
AM	AE	4	431.66
AM	AE	5	508.22
AM	AF	1	540.88
AM	AF	2	384.57
AM	AF	3	475.92
AM	AF	4	511.04
AM	AF	5	601.67
AM	AG	1	442.15
AM	AG	2	314.37
AM	AG	3	389.04
AM	AG	4	417.75
AM	AG	5	491.84
AM	AH	1	351.64
AM	AH	2	250.02
AM	AH	3	309.41
AM	AH	4	332.23
AM	AH	5	391.16
AM	AI	1	371.27
AM	AI	2	263.98
AM	AI	3	326.68
AM	AI	4	350.79
AM	AI	5	413.00
AM	AJ	1	517.41
AM	AJ	2	367.89
AM	AJ	3	455.27
AM	AJ	4	488.86
AM	AJ	5	575.57
AN	AA	1	395.48
AN	AA	2	281.19
AN	AA	3	347.98
AN	AA	4	373.65
AN	AA	5	439.93
AN	AB	1	581.12
AN	AB	2	413.18
AN	AB	3	511.33
AN	AB	4	549.05
AN	AB	5	646.44
AN	AC	1	570.81
AN	AC	2	405.85
AN	AC	3	502.26
AN	AC	4	539.31
AN	AC	5	634.97
AN	AD	1	457.64
AN	AD	2	325.39
AN	AD	3	402.68
AN	AD	4	432.39
AN	AD	5	509.08
AN	AE	1	354.48
AN	AE	2	252.04
AN	AE	3	311.91
AN	AE	4	334.92
AN	AE	5	394.32
AN	AF	1	601.19
AN	AF	2	427.45
AN	AF	3	528.98
AN	AF	4	568.01
AN	AF	5	668.76
AN	AG	1	474.69
AN	AG	2	337.51
AN	AG	3	417.67
AN	AG	4	448.49
AN	AG	5	528.04
AN	AH	1	368.52
AN	AH	2	262.02
AN	AH	3	324.26
AN	AH	4	348.18
AN	AH	5	409.94
AN	AI	1	358.66
AN	AI	2	255.01
AN	AI	3	315.58
AN	AI	4	338.87
AN	AI	5	398.97
AN	AJ	1	442.11
AN	AJ	2	314.34
AN	AJ	3	389.01
AN	AJ	4	417.71
AN	AJ	5	491.79
AO	AA	1	197.52
AO	AA	2	140.44
AO	AA	3	173.79
AO	AA	4	186.62
AO	AA	5	219.72
AO	AB	1	372.32
AO	AB	2	264.72
AO	AB	3	327.60
AO	AB	4	351.78
AO	AB	5	414.17
AO	AC	1	360.76
AO	AC	2	256.50
AO	AC	3	317.43
AO	AC	4	340.85
AO	AC	5	401.31
AO	AD	1	251.19
AO	AD	2	178.60
AO	AD	3	221.02
AO	AD	4	237.33
AO	AD	5	279.42
AO	AE	1	563.89
AO	AE	2	400.93
AO	AE	3	496.16
AO	AE	4	532.77
AO	AE	5	627.26
AO	AF	1	396.55
AO	AF	2	281.95
AO	AF	3	348.92
AO	AF	4	374.66
AO	AF	5	441.11
AO	AG	1	265.50
AO	AG	2	188.77
AO	AG	3	233.61
AO	AG	4	250.85
AO	AG	5	295.34
AO	AH	1	158.79
AO	AH	2	112.90
AO	AH	3	139.72
AO	AH	4	150.03
AO	AH	5	176.64
AO	AI	1	152.13
AO	AI	2	108.16
AO	AI	3	133.86
AO	AI	4	143.73
AO	AI	5	169.23
AO	AJ	1	652.09
AO	AJ	2	463.64
AO	AJ	3	573.77
AO	AJ	4	616.10
AO	AJ	5	725.38
AP	AA	1	245.66
AP	AA	2	174.67
AP	AA	3	216.16
AP	AA	4	232.11
AP	AA	5	273.28
AP	AB	1	381.53
AP	AB	2	271.27
AP	AB	3	335.71
AP	AB	4	360.48
AP	AB	5	424.42
AP	AC	1	360.45
AP	AC	2	256.28
AP	AC	3	317.16
AP	AC	4	340.56
AP	AC	5	400.96
AP	AD	1	228.34
AP	AD	2	162.35
AP	AD	3	200.91
AP	AD	4	215.74
AP	AD	5	254.00
AP	AE	1	582.66
AP	AE	2	414.27
AP	AE	3	512.68
AP	AE	4	550.50
AP	AE	5	648.14
AP	AF	1	418.27
AP	AF	2	297.39
AP	AF	3	368.03
AP	AF	4	395.19
AP	AF	5	465.28
AP	AG	1	278.32
AP	AG	2	197.89
AP	AG	3	244.89
AP	AG	4	262.96
AP	AG	5	309.60
AP	AH	1	179.48
AP	AH	2	127.61
AP	AH	3	157.92
AP	AH	4	169.57
AP	AH	5	199.65
AP	AI	1	139.22
AP	AI	2	98.99
AP	AI	3	122.50
AP	AI	4	131.54
AP	AI	5	154.87
AP	AJ	1	679.05
AP	AJ	2	482.81
AP	AJ	3	597.49
AP	AJ	4	641.57
AP	AJ	5	755.36
AQ	AA	1	284.93
AQ	AA	2	202.59
AQ	AA	3	250.71
AQ	AA	4	269.20
AQ	AA	5	316.95
AQ	AB	1	464.53
AQ	AB	2	330.29
AQ	AB	3	408.74
AQ	AB	4	438.90
AQ	AB	5	516.74
AQ	AC	1	452.93
AQ	AC	2	322.03
AQ	AC	3	398.53
AQ	AC	4	427.93
AQ	AC	5	503.83
AQ	AD	1	339.35
AQ	AD	2	241.28
AQ	AD	3	298.59
AQ	AD	4	320.63
AQ	AD	5	377.49
AQ	AE	1	471.65
AQ	AE	2	335.35
AQ	AE	3	415.00
AQ	AE	4	445.62
AQ	AE	5	524.66
AQ	AF	1	487.52
AQ	AF	2	346.63
AQ	AF	3	428.96
AQ	AF	4	460.61
AQ	AF	5	542.31
AQ	AG	1	357.75
AQ	AG	2	254.36
AQ	AG	3	314.78
AQ	AG	4	338.01
AQ	AG	5	397.96
AQ	AH	1	251.08
AQ	AH	2	178.52
AQ	AH	3	220.92
AQ	AH	4	237.22
AQ	AH	5	279.30
AQ	AI	1	240.23
AQ	AI	2	170.81
AQ	AI	3	211.38
AQ	AI	4	226.97
AQ	AI	5	267.23
AQ	AJ	1	560.69
AQ	AJ	2	398.66
AQ	AJ	3	493.35
AQ	AJ	4	529.75
AQ	AJ	5	623.71
AR	AA	1	540.82
AR	AA	2	384.53
AR	AA	3	475.87
AR	AA	4	510.98
AR	AA	5	601.61
AR	AB	1	730.40
AR	AB	2	519.32
AR	AB	3	642.67
AR	AB	4	690.09
AR	AB	5	812.49
AR	AC	1	721.29
AR	AC	2	512.84
AR	AC	3	634.66
AR	AC	4	681.49
AR	AC	5	802.36
AR	AD	1	608.81
AR	AD	2	432.87
AR	AD	3	535.69
AR	AD	4	575.22
AR	AD	5	677.24
AR	AE	1	208.33
AR	AE	2	148.12
AR	AE	3	183.31
AR	AE	4	196.83
AR	AE	5	231.74
AR	AF	1	747.81
AR	AF	2	531.70
AR	AF	3	658.00
AR	AF	4	706.54
AR	AF	5	831.86
AR	AG	1	624.43
AR	AG	2	443.97
AR	AG	3	549.43
AR	AG	4	589.97
AR	AG	5	694.61
AR	AH	1	518.85
AR	AH	2	368.90
AR	AH	3	456.53
AR	AH	4	490.21
AR	AH	5	577.16
AR	AI	1	509.91
AR	AI	2	362.55
AR	AI	3	448.67
AR	AI	4	481.77
AR	AI	5	567.22
AR	AJ	1	291.04
AR	AJ	2	206.93
AR	AJ	3	256.08
AR	AJ	4	274.98
AR	AJ	5	323.75
AS	AA	1	255.11
AS	AA	2	181.39
AS	AA	3	224.47
AS	AA	4	241.03
AS	AA	5	283.79
AS	AB	1	445.77
AS	AB	2	316.95
AS	AB	3	392.23
AS	AB	4	421.17
AS	AB	5	495.87
AS	AC	1	439.15
AS	AC	2	312.24
AS	AC	3	386.40
AS	AC	4	414.91
AS	AC	5	488.50
AS	AD	1	339.59
AS	AD	2	241.45
AS	AD	3	298.81
AS	AD	4	320.85
AS	AD	5	377.76
AS	AE	1	493.24
AS	AE	2	350.70
AS	AE	3	434.00
AS	AE	4	466.02
AS	AE	5	548.67
AS	AF	1	461.97
AS	AF	2	328.46
AS	AF	3	406.48
AS	AF	4	436.47
AS	AF	5	513.89
AS	AG	1	340.86
AS	AG	2	242.35
AS	AG	3	299.92
AS	AG	4	322.05
AS	AG	5	379.16
AS	AH	1	237.73
AS	AH	2	169.02
AS	AH	3	209.17
AS	AH	4	224.61
AS	AH	5	264.44
AS	AI	1	241.58
AS	AI	2	171.77
AS	AI	3	212.57
AS	AI	4	228.25
AS	AI	5	268.74
AS	AJ	1	575.24
AS	AJ	2	409.00
AS	AJ	3	506.16
AS	AJ	4	543.50
AS	AJ	5	639.90
AT	AA	1	348.58
AT	AA	2	247.84
AT	AA	3	306.71
AT	AA	4	329.34
AT	AA	5	387.76
AT	AB	1	546.38
AT	AB	2	388.48
AT	AB	3	480.75
AT	AB	4	516.22
AT	AB	5	607.78
AT	AC	1	545.12
AT	AC	2	387.58
AT	AC	3	479.64
AT	AC	4	515.03
AT	AC	5	606.38
AT	AD	1	457.32
AT	AD	2	325.16
AT	AD	3	402.39
AT	AD	4	432.08
AT	AD	5	508.72
AT	AE	1	423.35
AT	AE	2	301.00
AT	AE	3	372.50
AT	AE	4	399.99
AT	AE	5	470.93
AT	AF	1	553.63
AT	AF	2	393.63
AT	AF	3	487.13
AT	AF	4	523.08
AT	AF	5	615.85
AT	AG	1	445.86
AT	AG	2	317.01
AT	AG	3	392.31
AT	AG	4	421.25
AT	AG	5	495.97
AT	AH	1	349.15
AT	AH	2	248.25
AT	AH	3	307.22
AT	AH	4	329.88
AT	AH	5	388.39
AT	AI	1	361.22
AT	AI	2	256.83
AT	AI	3	317.84
AT	AI	4	341.29
AT	AI	5	401.82
AT	AJ	1	490.58
AT	AJ	2	348.80
AT	AJ	3	431.66
AT	AJ	4	463.51
AT	AJ	5	545.71
;

table R={R}  q(R)  p(R)  d(R):
	R	q	p	d	:=
	1	30.0	AA	AF
	2	10.0	AB	AG
	3	20.0	AC	AH
	4	10.0	AD	AI
	5	40.0	AE	AJ
;

